data/CVRPLIB/Vrp-Set-XML100/instances/XML100_2211_04.vrp
NAME : XML100_2211_04
COMMENT : Generated by Queiroga, Sadykov, Uchoa, and Vidal (2021)
TYPE : CVRP
DIMENSION : 101
EDGE_WEIGHT_TYPE : EUC_2D
CAPACITY : 3
NODE_COORD_SECTION
1    500  500 
2    802  263 
3    631  286 
4    932  302 
5    945  191 
6    547  219 
7    609  118 
8    869  339 
9    976  181 
10   642  217 
11   937  223 
12   890  331 
13   951  114 
14   943  315 
15   934  297 
16   880  240 
17   830  207 
18   971  220 
19   624  226 
20   863  300 
21   914  156 
22   649  291 
23   545  97  
24   745  219 
25   644  297 
26   936  193 
27   623  198 
28   999  176 
29   938  186 
30   914  136 
31   897  281 
32   654  274 
33   610  311 
34   859  305 
35   905  222 
36   571  40  
37   903  381 
38   634  243 
39   720  265 
40   644  338 
41   902  289 
42   993  179 
43   826  140 
44   628  248 
45   936  448 
46   578  308 
47   707  283 
48   855  277 
49   919  283 
50   606  237 
51   924  157 
52   942  228 
53   766  23  
54   781  347 
55   681  268 
56   923  183 
57   752  255 
58   737  141 
59   905  215 
60   581  183 
61   914  269 
62   916  195 
63   728  382 
64   985  217 
65   969  252 
66   969  333 
67   603  239 
68   892  212 
69   907  454 
70   659  118 
71   900  286 
72   647  206 
73   827  146 
74   597  253 
75   818  150 
76   855  304 
77   909  25  
78   853  325 
79   872  315 
80   953  169 
81   968  13  
82   596  342 
83   945  192 
84   182  400 
85   866  308 
86   901  174 
87   823  315 
88   854  117 
89   632  308 
90   817  242 
91   463  123 
92   541  254 
93   787  250 
94   982  314 
95   613  242 
96   823  183 
97   617  188 
98   980  128 
99   820  266 
100  557  306 
101  812  150 
DEMAND_SECTION
1    0   
2    1   
3    1   
4    1   
5    1   
6    1   
7    1   
8    1   
9    1   
10   1   
11   1   
12   1   
13   1   
14   1   
15   1   
16   1   
17   1   
18   1   
19   1   
20   1   
21   1   
22   1   
23   1   
24   1   
25   1   
26   1   
27   1   
28   1   
29   1   
30   1   
31   1   
32   1   
33   1   
34   1   
35   1   
36   1   
37   1   
38   1   
39   1   
40   1   
41   1   
42   1   
43   1   
44   1   
45   1   
46   1   
47   1   
48   1   
49   1   
50   1   
51   1   
52   1   
53   1   
54   1   
55   1   
56   1   
57   1   
58   1   
59   1   
60   1   
61   1   
62   1   
63   1   
64   1   
65   1   
66   1   
67   1   
68   1   
69   1   
70   1   
71   1   
72   1   
73   1   
74   1   
75   1   
76   1   
77   1   
78   1   
79   1   
80   1   
81   1   
82   1   
83   1   
84   1   
85   1   
86   1   
87   1   
88   1   
89   1   
90   1   
91   1   
92   1   
93   1   
94   1   
95   1   
96   1   
97   1   
98   1   
99   1   
100  1   
101  1   
DEPOT_SECTION
1
-1
EOF
